
Gurobi 10.0.2 (linux64) logging started Thu Sep  7 10:02:53 2023

Set parameter LogFile to value "../surrogate_problem/log/surrogate2_33.log"
Set parameter Threads to value 30
Gurobi Optimizer version 10.0.2 build v10.0.2rc0 (linux64)

CPU model: Intel(R) Xeon(R) Platinum 8280 CPU @ 2.70GHz, instruction set [SSE2|AVX|AVX2|AVX512]
Thread count: 112 physical cores, 112 logical processors, using up to 30 threads

Optimize a model with 497 rows, 730 columns and 41210 nonzeros
Model fingerprint: 0xce0ac959
Variable types: 321 continuous, 409 integer (409 binary)
Coefficient statistics:
  Matrix range     [3e-07, 1e+05]
  Objective range  [2e-01, 2e+01]
  Bounds range     [1e+00, 1e+00]
  RHS range        [3e-02, 1e+05]
Found heuristic solution: objective 41619.154018
Presolve removed 307 rows and 307 columns
Presolve time: 0.02s
Presolved: 190 rows, 423 columns, 14259 nonzeros
Variable types: 116 continuous, 307 integer (307 binary)

Root relaxation: objective 3.671226e+04, 76 iterations, 0.00 seconds (0.00 work units)

    Nodes    |    Current Node    |     Objective Bounds      |     Work
 Expl Unexpl |  Obj  Depth IntInf | Incumbent    BestBd   Gap | It/Node Time

     0     0 36712.2607    0    2 41619.1540 36712.2607  11.8%     -    0s
H    0     0                    36712.263439 36712.2607  0.00%     -    0s
     0     0 36712.2607    0    2 36712.2634 36712.2607  0.00%     -    0s

Explored 1 nodes (76 simplex iterations) in 0.05 seconds (0.03 work units)
Thread count was 30 (of 112 available processors)

Solution count 2: 36712.3 41619.2 

Optimal solution found (tolerance 1.00e-04)
Best objective 3.671226343911e+04, best bound 3.671226343911e+04, gap 0.0000%

Gurobi 10.0.2 (linux64) logging started Fri Sep  8 15:20:50 2023

Set parameter LogFile to value "../surrogate_problem/log/surrogate2_33.log"
Gurobi Optimizer version 10.0.2 build v10.0.2rc0 (linux64)

CPU model: Intel(R) Xeon(R) Platinum 8280 CPU @ 2.70GHz, instruction set [SSE2|AVX|AVX2|AVX512]
Thread count: 112 physical cores, 112 logical processors, using up to 30 threads

Optimize a model with 497 rows, 730 columns and 41210 nonzeros
Model fingerprint: 0xce0ac959
Variable types: 321 continuous, 409 integer (409 binary)
Coefficient statistics:
  Matrix range     [3e-07, 1e+05]
  Objective range  [2e-01, 2e+01]
  Bounds range     [1e+00, 1e+00]
  RHS range        [3e-02, 1e+05]
Found heuristic solution: objective 41619.154018
Presolve removed 307 rows and 307 columns
Presolve time: 0.03s
Presolved: 190 rows, 423 columns, 14259 nonzeros
Variable types: 116 continuous, 307 integer (307 binary)

Root relaxation: objective 3.671226e+04, 76 iterations, 0.00 seconds (0.00 work units)

    Nodes    |    Current Node    |     Objective Bounds      |     Work
 Expl Unexpl |  Obj  Depth IntInf | Incumbent    BestBd   Gap | It/Node Time

     0     0 36712.2607    0    2 41619.1540 36712.2607  11.8%     -    0s
H    0     0                    36712.263439 36712.2607  0.00%     -    0s
     0     0 36712.2607    0    2 36712.2634 36712.2607  0.00%     -    0s

Explored 1 nodes (76 simplex iterations) in 0.07 seconds (0.03 work units)
Thread count was 30 (of 112 available processors)

Solution count 2: 36712.3 41619.2 

Optimal solution found (tolerance 1.00e-04)
Best objective 3.671226343911e+04, best bound 3.671226343911e+04, gap 0.0000%
